Reading model...
...model read.
creating competitive generators file...
...competitive generators recorded.
Loading data...
.. real-time data read.
Compiling instance...
0.0
0.0
0.0
0.0
...instance created.
Creating Offer Mitigation (model will solve as dispatch if TRUE)...
...storage offer mitigation file created
Converting model to MPEC...
...converted
NOTE: initial MIP solve with only storage competitive to get feasible solution
Solving...

Welcome to IBM(R) ILOG(R) CPLEX(R) Interactive Optimizer 12.9.0.0
  with Simplex, Mixed Integer & Barrier Optimizers
5725-A06 5725-A29 5724-Y48 5724-Y49 5724-Y54 5724-Y55 5655-Y21
Copyright IBM Corp. 1988, 2019.  All Rights Reserved.

Type 'help' for a list of available commands.
Type 'help' followed by a command name for more
information on commands.

CPLEX> Logfile 'cplex.log' closed.
Logfile 'C:\Users\llavin\Desktop\test826\logs\tmp_8sksrin.cplex.log' open.
CPLEX> New value for parallel optimization mode: -1
CPLEX> New value for mixed integer optimality gap tolerance: 0.01
CPLEX> New value for emphasis for MIP optimization: 1
CPLEX> New value for integrality tolerance: 1e-12
CPLEX> New value for deterministic time limit in ticks: 150000
CPLEX> Problem 'C:\Users\llavin\Desktop\test826\logs\tmpdv60r3xc.pyomo.lp' read.
Read time = 0.52 sec. (28.51 ticks)
CPLEX> Problem name         : C:\Users\llavin\Desktop\test826\logs\tmpdv60r3xc.pyomo.lp
Objective sense      : Maximize
Variables            :  107783  [Nneg: 1,  Box: 44058,  Free: 8928,
                                 Binary: 54796]
Objective nonzeros   :   17377
Linear constraints   :  246901  [Less: 82864,  Greater: 118424,  Equal: 45613]
  Nonzeros           :  618173
  RHS nonzeros       :  134879

Variables            : Min LB: -5000.000        Max UB: 1000000.       
Objective nonzeros   : Min   : 0.1944444        Max   : 208.3333       
Linear constraints   :
  Nonzeros           : Min   : 0.1944444        Max   : 1000000.       
  RHS nonzeros       : Min   : 0.1944444        Max   : 1000000.       
CPLEX> CPXPARAM_Parallel                                -1
CPXPARAM_Emphasis_MIP                            1
CPXPARAM_DetTimeLimit                            150000
CPXPARAM_MIP_Tolerances_MIPGap                   0.01
CPXPARAM_MIP_Tolerances_Integrality              9.9999999999999998e-13
Tried aggregator 3 times.
MIP Presolve eliminated 181935 rows and 41673 columns.
MIP Presolve added 6048 rows and 0 columns.
MIP Presolve modified 50020 coefficients.
Aggregator did 25958 substitutions.
Reduced MIP has 45056 rows, 38520 columns, and 133698 nonzeros.
Reduced MIP has 15176 binaries, 0 generals, 0 SOSs, and 0 indicators.
Presolve time = 0.59 sec. (345.94 ticks)
Probing fixed 849 vars, tightened 9747 bounds.
Probing time = 0.36 sec. (15.77 ticks)
Tried aggregator 2 times.
MIP Presolve eliminated 1892 rows and 1698 columns.
MIP Presolve modified 5461 coefficients.
Aggregator did 48 substitutions.
Reduced MIP has 43116 rows, 36774 columns, and 124664 nonzeros.
Reduced MIP has 14327 binaries, 0 generals, 0 SOSs, and 0 indicators.
Presolve time = 0.23 sec. (209.82 ticks)
Probing fixed 0 vars, tightened 469 bounds.
Probing time = 0.50 sec. (16.99 ticks)
Clique table members: 88468.
MIP emphasis: integer feasibility.
MIP search method: dynamic search.
Parallel mode: opportunistic, using up to 32 threads.
Root relaxation solution time = 0.80 sec. (1562.49 ticks)

        Nodes                                         Cuts/
   Node  Left     Objective  IInf  Best Integer    Best Bound    ItCnt     Gap

      0     0        0.0000     1                      0.0000     8212         
*     0+    0                            0.0000        0.0000             0.00%
      0     0        cutoff              0.0000        0.0000     8212    0.00%
Elapsed time = 3.19 sec. (2749.51 ticks, tree = 0.01 MB, solutions = 1)

Root node processing (before b&c):
  Real time             =    3.22 sec. (2753.31 ticks)
Parallel b&c, 32 threads:
  Real time             =    0.00 sec. (0.00 ticks)
  Sync time (average)   =    0.00 sec.
  Wait time (average)   =    0.00 sec.
                          ------------
Total (root+branch&cut) =    3.22 sec. (2753.31 ticks)

Solution pool: 1 solution saved.

MIP - Integer optimal solution:  Objective =  0.0000000000e+00
Solution time =    3.23 sec.  Iterations = 8212  Nodes = 0
Deterministic time = 2753.62 ticks  (851.20 ticks/sec)

CPLEX> Incumbent solution written to file 'C:\Users\llavin\Desktop\test826\logs\tmpd3e9pa6u.cplex.sol'.
CPLEX> NOTE: no warmstart specified for MIP iteration, default behavior is true
NOTE: resolving with all competitive generators using storage-only solution to warmstart
Solving...

Welcome to IBM(R) ILOG(R) CPLEX(R) Interactive Optimizer 12.9.0.0
  with Simplex, Mixed Integer & Barrier Optimizers
5725-A06 5725-A29 5724-Y48 5724-Y49 5724-Y54 5724-Y55 5655-Y21
Copyright IBM Corp. 1988, 2019.  All Rights Reserved.

Type 'help' for a list of available commands.
Type 'help' followed by a command name for more
information on commands.

CPLEX> Logfile 'cplex.log' closed.
Logfile 'C:\Users\llavin\Desktop\test826\logs\tmpishvjt1d.cplex.log' open.
CPLEX> New value for parallel optimization mode: -1
CPLEX> New value for mixed integer optimality gap tolerance: 0.01
CPLEX> New value for emphasis for MIP optimization: 1
CPLEX> New value for integrality tolerance: 1e-12
CPLEX> New value for deterministic time limit in ticks: 150000
CPLEX> Problem 'C:\Users\llavin\Desktop\test826\logs\tmpl88dwp67.pyomo.lp' read.
Read time = 0.55 sec. (28.56 ticks)
CPLEX> MIP start file 'C:\Users\llavin\Desktop\test826\logs\tmp48xl76cn.cplex.mst' read.
CPLEX> Problem name         : C:\Users\llavin\Desktop\test826\logs\tmpl88dwp67.pyomo.lp
Objective sense      : Maximize
Variables            :  109223  [Nneg: 1,  Box: 45498,  Free: 8928,
                                 Binary: 54796]
Objective nonzeros   :   18769
Linear constraints   :  246901  [Less: 82864,  Greater: 118424,  Equal: 45613]
  Nonzeros           :  618173
  RHS nonzeros       :  134879

Variables            : Min LB: -5000.000        Max UB: 1000000.       
Objective nonzeros   : Min   : 0.1944444        Max   : 208.3333       
Linear constraints   :
  Nonzeros           : Min   : 0.1944444        Max   : 1000000.       
  RHS nonzeros       : Min   : 0.1944444        Max   : 1000000.       
CPLEX> CPXPARAM_Parallel                                -1
CPXPARAM_Emphasis_MIP                            1
CPXPARAM_DetTimeLimit                            150000
CPXPARAM_MIP_Tolerances_MIPGap                   0.01
CPXPARAM_MIP_Tolerances_Integrality              9.9999999999999998e-13
Warning:  No solution found from 1 MIP starts.
Retaining values of one MIP start for possible repair.
Tried aggregator 3 times.
MIP Presolve eliminated 181935 rows and 43113 columns.
MIP Presolve added 6048 rows and 0 columns.
MIP Presolve modified 50020 coefficients.
Aggregator did 25958 substitutions.
Reduced MIP has 45056 rows, 38520 columns, and 133698 nonzeros.
Reduced MIP has 15176 binaries, 0 generals, 0 SOSs, and 0 indicators.
Presolve time = 0.59 sec. (346.67 ticks)
Probing fixed 849 vars, tightened 9747 bounds.
Probing time = 0.34 sec. (15.77 ticks)
Tried aggregator 2 times.
MIP Presolve eliminated 1892 rows and 1698 columns.
MIP Presolve modified 5461 coefficients.
Aggregator did 48 substitutions.
Reduced MIP has 43116 rows, 36774 columns, and 124664 nonzeros.
Reduced MIP has 14327 binaries, 0 generals, 0 SOSs, and 0 indicators.
Presolve time = 0.23 sec. (209.97 ticks)
Probing fixed 0 vars, tightened 469 bounds.
Probing time = 0.50 sec. (16.99 ticks)
Clique table members: 88468.
MIP emphasis: integer feasibility.
MIP search method: dynamic search.
Parallel mode: opportunistic, using up to 32 threads.
Root relaxation solution time = 1.00 sec. (1771.42 ticks)

        Nodes                                         Cuts/
   Node  Left     Objective  IInf  Best Integer    Best Bound    ItCnt     Gap

      0     0    14262.5173   494                  14262.5173     9467         
*     0+    0                            0.0000    14262.5173              --- 
      0     0    13958.9555   294        0.0000      Cuts: 70     9544     --- 
      0     0    13958.9555   345        0.0000     Cuts: 224     9692     --- 
      0     0    13958.9555   342        0.0000     Cuts: 418     9894     --- 
Repair heuristic found nothing.
      0    32    13249.6079   327        0.0000   Flowcuts: 1    10030     --- 
Elapsed time = 9.52 sec. (5411.19 ticks, tree = 0.02 MB, solutions = 1)
    381    57    13285.8845   325        0.0000    13957.4567    10106     --- 
    801   603    12944.3577   303        0.0000    13957.4567    12966     --- 
   1399   824    12981.2652   288        0.0000    13957.4567    14254     --- 
   1817  1732    13003.6842   288        0.0000    13957.4567    17763     --- 
   2075  1790    13435.9418   296        0.0000    13957.4567    17943     --- 
   2421  1794    13332.4043   293        0.0000    13957.4567    17977     --- 
   2804  2231    12949.2693   273        0.0000    13957.4567    19859     --- 
   3215  2541    11648.0770   240        0.0000    13957.4567    21171     --- 
   3701  2680    13227.7903   247        0.0000    13957.4567    21694     --- 
   5613  4216    12476.2135   183        0.0000    13957.4567    25615     --- 
Elapsed time = 28.39 sec. (8517.98 ticks, tree = 50.01 MB, solutions = 1)
   6377  6074    infeasible              0.0000     9438.0832    42975     --- 
   7668   134     2499.4262    33        0.0000     8147.9479    49213     --- 
   8173   581    infeasible              0.0000     8147.9479    60116     --- 
   9408   447        cutoff              0.0000     1926.8672    68258     --- 

GUB cover cuts applied:  4
Cover cuts applied:  1
Implied bound cuts applied:  6
Flow cuts applied:  235
Mixed integer rounding cuts applied:  147
Lift and project cuts applied:  17
Gomory fractional cuts applied:  35

Root node processing (before b&c):
  Real time             =    7.27 sec. (5350.07 ticks)
Parallel b&c, 32 threads:
  Real time             =   42.77 sec. (12477.48 ticks)
  Sync time (average)   =    3.41 sec.
  Wait time (average)   =    0.35 sec.
                          ------------
Total (root+branch&cut) =   50.03 sec. (17827.55 ticks)

Solution pool: 10 solutions saved.

MIP - Integer optimal, tolerance (0.01/1e-06):  Objective =  5.4185875342e-08
Current MIP best bound =  5.6017597672e-08 (gap = 1.83172e-09, 0.00%)
Solution time =   50.06 sec.  Iterations = 74439  Nodes = 9517 (100)
Deterministic time = 17827.86 ticks  (356.11 ticks/sec)

CPLEX> Incumbent solution written to file 'C:\Users\llavin\Desktop\test826\logs\tmpgk2boiv6.cplex.sol'.
CPLEX> Exporting results... 
